
;this file is automatically generated: Tue Feb 23 13:38:02 CST 2021

;declarations generated

(declare-fun oclExcludes ( Int Int) Bool)
(declare-fun Cardinality ( Int) Int)
(declare-fun type_bf331821_5b54_4c81_ad70_df14e85d53f0_Class27 ( Int) Bool)
(declare-fun type_bf331821_5b54_4c81_ad70_df14e85d53f0_Class28 ( Int) Bool)
(declare-fun type_bf331821_5b54_4c81_ad70_df14e85d53f0_Class29 ( Int) Bool)
(declare-fun type_bf331821_5b54_4c81_ad70_df14e85d53f0_Class23 ( Int) Bool)
(declare-fun type_bf331821_5b54_4c81_ad70_df14e85d53f0_Class24 ( Int) Bool)
(declare-fun type_bf331821_5b54_4c81_ad70_df14e85d53f0_Class25 ( Int) Bool)
(declare-fun type_bf331821_5b54_4c81_ad70_df14e85d53f0_Class26 ( Int) Bool)
(declare-fun type_bf331821_5b54_4c81_ad70_df14e85d53f0_Class20 ( Int) Bool)
(declare-fun type_bf331821_5b54_4c81_ad70_df14e85d53f0_Class21 ( Int) Bool)
(declare-fun type_bf331821_5b54_4c81_ad70_df14e85d53f0_Class22 ( Int) Bool)
(declare-fun type_bf331821_5b54_4c81_ad70_df14e85d53f0_Class38 ( Int) Bool)
(declare-fun type_bf331821_5b54_4c81_ad70_df14e85d53f0_Class39 ( Int) Bool)
(declare-fun type_bf331821_5b54_4c81_ad70_df14e85d53f0_Class34 ( Int) Bool)
(declare-fun type_bf331821_5b54_4c81_ad70_df14e85d53f0_Class35 ( Int) Bool)
(declare-fun type_bf331821_5b54_4c81_ad70_df14e85d53f0_Class36 ( Int) Bool)
(declare-fun type_bf331821_5b54_4c81_ad70_df14e85d53f0_Class37 ( Int) Bool)
(declare-fun type_bf331821_5b54_4c81_ad70_df14e85d53f0_Class30 ( Int) Bool)
(declare-fun type_bf331821_5b54_4c81_ad70_df14e85d53f0_Class31 ( Int) Bool)
(declare-fun type_bf331821_5b54_4c81_ad70_df14e85d53f0_Class32 ( Int) Bool)
(declare-fun type_bf331821_5b54_4c81_ad70_df14e85d53f0_Class33 ( Int) Bool)
(declare-fun type_bf331821_5b54_4c81_ad70_df14e85d53f0_Class45 ( Int) Bool)
(declare-fun type_bf331821_5b54_4c81_ad70_df14e85d53f0_Class41 ( Int) Bool)
(declare-fun type_bf331821_5b54_4c81_ad70_df14e85d53f0_Class42 ( Int) Bool)
(declare-fun type_bf331821_5b54_4c81_ad70_df14e85d53f0_Class43 ( Int) Bool)
(declare-fun type_bf331821_5b54_4c81_ad70_df14e85d53f0_Class44 ( Int) Bool)
(declare-fun type_bf331821_5b54_4c81_ad70_df14e85d53f0_Class40 ( Int) Bool)
(declare-fun type_bf331821_5b54_4c81_ad70_df14e85d53f0_Class9 ( Int) Bool)
(declare-fun type_bf331821_5b54_4c81_ad70_df14e85d53f0_Class8 ( Int) Bool)
(declare-fun type_bf331821_5b54_4c81_ad70_df14e85d53f0_Class7 ( Int) Bool)
(declare-fun type_bf331821_5b54_4c81_ad70_df14e85d53f0_Class6 ( Int) Bool)
(declare-fun type_bf331821_5b54_4c81_ad70_df14e85d53f0_Class5 ( Int) Bool)
(declare-fun type_bf331821_5b54_4c81_ad70_df14e85d53f0_Class4 ( Int) Bool)
(declare-fun type_bf331821_5b54_4c81_ad70_df14e85d53f0_Class3 ( Int) Bool)
(declare-fun type_bf331821_5b54_4c81_ad70_df14e85d53f0_Class2 ( Int) Bool)
(declare-fun type_bf331821_5b54_4c81_ad70_df14e85d53f0_Class1 ( Int) Bool)
(declare-fun type_bf331821_5b54_4c81_ad70_df14e85d53f0_Class0 ( Int) Bool)
(declare-fun oclSelect ( Int Bool) Int)
(declare-fun type_bf331821_5b54_4c81_ad70_df14e85d53f0_Class16 ( Int) Bool)
(declare-fun type_bf331821_5b54_4c81_ad70_df14e85d53f0_Class17 ( Int) Bool)
(declare-fun type_bf331821_5b54_4c81_ad70_df14e85d53f0_Class18 ( Int) Bool)
(declare-fun type_bf331821_5b54_4c81_ad70_df14e85d53f0_Class19 ( Int) Bool)
(declare-fun type_bf331821_5b54_4c81_ad70_df14e85d53f0_Class12 ( Int) Bool)
(declare-fun type_bf331821_5b54_4c81_ad70_df14e85d53f0_Class13 ( Int) Bool)
(declare-fun type_bf331821_5b54_4c81_ad70_df14e85d53f0_Class14 ( Int) Bool)
(declare-fun type_bf331821_5b54_4c81_ad70_df14e85d53f0_Class15 ( Int) Bool)
(declare-fun type_bf331821_5b54_4c81_ad70_df14e85d53f0_Class10 ( Int) Bool)
(declare-fun type_bf331821_5b54_4c81_ad70_df14e85d53f0_Class11 ( Int) Bool)
(declare-fun class26_Class26IntAttr0 ( Int) Int)
(declare-fun Enum0 ( Int) Int)
(declare-fun Enum1 ( Int) Int)
(declare-fun Enum2 ( Int) Int)
(declare-fun container_ ( Int) Int)
(declare-fun oclIncludes ( Int Int) Bool)
(declare-fun obj_b0c2021d_1666_44ab_94ff_5c59a38abf38 ( Int) Int)
(declare-fun ObjAt ( Int Int) Int)

;formula(s) generated
(assert (! (exists ((c1 Int)) (and (and (and ( type_bf331821_5b54_4c81_ad70_df14e85d53f0_Class26 c1 )  ( type_bf331821_5b54_4c81_ad70_df14e85d53f0_Class32 c1 ) ) ( type_bf331821_5b54_4c81_ad70_df14e85d53f0_Class2 c1 ) ) (not (= ( class26_Class26IntAttr0 ( obj_b0c2021d_1666_44ab_94ff_5c59a38abf38 c1 )  )  5) ))):named l0))
(assert (! (exists ((o Int)) (and (and (and ( type_bf331821_5b54_4c81_ad70_df14e85d53f0_Class0 ( obj_b0c2021d_1666_44ab_94ff_5c59a38abf38 o )  )  ( type_bf331821_5b54_4c81_ad70_df14e85d53f0_Class22 ( obj_b0c2021d_1666_44ab_94ff_5c59a38abf38 o )  ) ) ( type_bf331821_5b54_4c81_ad70_df14e85d53f0_Class35 ( obj_b0c2021d_1666_44ab_94ff_5c59a38abf38 o )  ) ) ( type_bf331821_5b54_4c81_ad70_df14e85d53f0_Class2 ( obj_b0c2021d_1666_44ab_94ff_5c59a38abf38 o )  ) )):named c0))
(assert (! (exists ((o Int)) ( type_bf331821_5b54_4c81_ad70_df14e85d53f0_Class1 ( obj_b0c2021d_1666_44ab_94ff_5c59a38abf38 o )  ) ):named c1))
(assert (! (exists ((o Int)) (and (and (and (and ( type_bf331821_5b54_4c81_ad70_df14e85d53f0_Class10 ( obj_b0c2021d_1666_44ab_94ff_5c59a38abf38 o )  )  ( type_bf331821_5b54_4c81_ad70_df14e85d53f0_Class16 ( obj_b0c2021d_1666_44ab_94ff_5c59a38abf38 o )  ) ) ( type_bf331821_5b54_4c81_ad70_df14e85d53f0_Class15 ( obj_b0c2021d_1666_44ab_94ff_5c59a38abf38 o )  ) ) ( type_bf331821_5b54_4c81_ad70_df14e85d53f0_Class41 ( obj_b0c2021d_1666_44ab_94ff_5c59a38abf38 o )  ) ) ( type_bf331821_5b54_4c81_ad70_df14e85d53f0_Class2 ( obj_b0c2021d_1666_44ab_94ff_5c59a38abf38 o )  ) )):named c2))
(assert (! (exists ((o Int)) ( type_bf331821_5b54_4c81_ad70_df14e85d53f0_Class11 ( obj_b0c2021d_1666_44ab_94ff_5c59a38abf38 o )  ) ):named c3))
(assert (! (exists ((o Int)) (and (and (and (and ( type_bf331821_5b54_4c81_ad70_df14e85d53f0_Class12 ( obj_b0c2021d_1666_44ab_94ff_5c59a38abf38 o )  )  ( type_bf331821_5b54_4c81_ad70_df14e85d53f0_Class22 ( obj_b0c2021d_1666_44ab_94ff_5c59a38abf38 o )  ) ) ( type_bf331821_5b54_4c81_ad70_df14e85d53f0_Class35 ( obj_b0c2021d_1666_44ab_94ff_5c59a38abf38 o )  ) ) ( type_bf331821_5b54_4c81_ad70_df14e85d53f0_Class0 ( obj_b0c2021d_1666_44ab_94ff_5c59a38abf38 o )  ) ) ( type_bf331821_5b54_4c81_ad70_df14e85d53f0_Class2 ( obj_b0c2021d_1666_44ab_94ff_5c59a38abf38 o )  ) )):named c4))
(assert (! (exists ((o Int)) (and (and (and ( type_bf331821_5b54_4c81_ad70_df14e85d53f0_Class13 ( obj_b0c2021d_1666_44ab_94ff_5c59a38abf38 o )  )  ( type_bf331821_5b54_4c81_ad70_df14e85d53f0_Class16 ( obj_b0c2021d_1666_44ab_94ff_5c59a38abf38 o )  ) ) ( type_bf331821_5b54_4c81_ad70_df14e85d53f0_Class15 ( obj_b0c2021d_1666_44ab_94ff_5c59a38abf38 o )  ) ) ( type_bf331821_5b54_4c81_ad70_df14e85d53f0_Class2 ( obj_b0c2021d_1666_44ab_94ff_5c59a38abf38 o )  ) )):named c5))
(assert (! (exists ((o Int)) (and (and (and (and (and (and (and ( type_bf331821_5b54_4c81_ad70_df14e85d53f0_Class14 ( obj_b0c2021d_1666_44ab_94ff_5c59a38abf38 o )  )  ( type_bf331821_5b54_4c81_ad70_df14e85d53f0_Class33 ( obj_b0c2021d_1666_44ab_94ff_5c59a38abf38 o )  ) ) ( type_bf331821_5b54_4c81_ad70_df14e85d53f0_Class13 ( obj_b0c2021d_1666_44ab_94ff_5c59a38abf38 o )  ) ) ( type_bf331821_5b54_4c81_ad70_df14e85d53f0_Class16 ( obj_b0c2021d_1666_44ab_94ff_5c59a38abf38 o )  ) ) ( type_bf331821_5b54_4c81_ad70_df14e85d53f0_Class15 ( obj_b0c2021d_1666_44ab_94ff_5c59a38abf38 o )  ) ) ( type_bf331821_5b54_4c81_ad70_df14e85d53f0_Class4 ( obj_b0c2021d_1666_44ab_94ff_5c59a38abf38 o )  ) ) ( type_bf331821_5b54_4c81_ad70_df14e85d53f0_Class41 ( obj_b0c2021d_1666_44ab_94ff_5c59a38abf38 o )  ) ) ( type_bf331821_5b54_4c81_ad70_df14e85d53f0_Class2 ( obj_b0c2021d_1666_44ab_94ff_5c59a38abf38 o )  ) )):named c6))
(assert (! (exists ((o Int)) (and ( type_bf331821_5b54_4c81_ad70_df14e85d53f0_Class15 ( obj_b0c2021d_1666_44ab_94ff_5c59a38abf38 o )  )  ( type_bf331821_5b54_4c81_ad70_df14e85d53f0_Class2 ( obj_b0c2021d_1666_44ab_94ff_5c59a38abf38 o )  ) )):named c7))
(assert (! (exists ((o Int)) (and (and ( type_bf331821_5b54_4c81_ad70_df14e85d53f0_Class16 ( obj_b0c2021d_1666_44ab_94ff_5c59a38abf38 o )  )  ( type_bf331821_5b54_4c81_ad70_df14e85d53f0_Class15 ( obj_b0c2021d_1666_44ab_94ff_5c59a38abf38 o )  ) ) ( type_bf331821_5b54_4c81_ad70_df14e85d53f0_Class2 ( obj_b0c2021d_1666_44ab_94ff_5c59a38abf38 o )  ) )):named c8))
(assert (! (exists ((o Int)) (and (and (and (and ( type_bf331821_5b54_4c81_ad70_df14e85d53f0_Class17 ( obj_b0c2021d_1666_44ab_94ff_5c59a38abf38 o )  )  ( type_bf331821_5b54_4c81_ad70_df14e85d53f0_Class24 ( obj_b0c2021d_1666_44ab_94ff_5c59a38abf38 o )  ) ) ( type_bf331821_5b54_4c81_ad70_df14e85d53f0_Class26 ( obj_b0c2021d_1666_44ab_94ff_5c59a38abf38 o )  ) ) ( type_bf331821_5b54_4c81_ad70_df14e85d53f0_Class32 ( obj_b0c2021d_1666_44ab_94ff_5c59a38abf38 o )  ) ) ( type_bf331821_5b54_4c81_ad70_df14e85d53f0_Class2 ( obj_b0c2021d_1666_44ab_94ff_5c59a38abf38 o )  ) )):named c9))
(assert (! (exists ((o Int)) ( type_bf331821_5b54_4c81_ad70_df14e85d53f0_Class18 ( obj_b0c2021d_1666_44ab_94ff_5c59a38abf38 o )  ) ):named c10))
(assert (! (exists ((o Int)) ( type_bf331821_5b54_4c81_ad70_df14e85d53f0_Class19 ( obj_b0c2021d_1666_44ab_94ff_5c59a38abf38 o )  ) ):named c11))
(assert (! (exists ((o Int)) ( type_bf331821_5b54_4c81_ad70_df14e85d53f0_Class2 ( obj_b0c2021d_1666_44ab_94ff_5c59a38abf38 o )  ) ):named c12))
(assert (! (exists ((o Int)) (and (and ( type_bf331821_5b54_4c81_ad70_df14e85d53f0_Class20 ( obj_b0c2021d_1666_44ab_94ff_5c59a38abf38 o )  )  ( type_bf331821_5b54_4c81_ad70_df14e85d53f0_Class21 ( obj_b0c2021d_1666_44ab_94ff_5c59a38abf38 o )  ) ) ( type_bf331821_5b54_4c81_ad70_df14e85d53f0_Class2 ( obj_b0c2021d_1666_44ab_94ff_5c59a38abf38 o )  ) )):named c13))
(assert (! (exists ((o Int)) (and ( type_bf331821_5b54_4c81_ad70_df14e85d53f0_Class21 ( obj_b0c2021d_1666_44ab_94ff_5c59a38abf38 o )  )  ( type_bf331821_5b54_4c81_ad70_df14e85d53f0_Class2 ( obj_b0c2021d_1666_44ab_94ff_5c59a38abf38 o )  ) )):named c14))
(assert (! (exists ((o Int)) (and (and ( type_bf331821_5b54_4c81_ad70_df14e85d53f0_Class22 ( obj_b0c2021d_1666_44ab_94ff_5c59a38abf38 o )  )  ( type_bf331821_5b54_4c81_ad70_df14e85d53f0_Class35 ( obj_b0c2021d_1666_44ab_94ff_5c59a38abf38 o )  ) ) ( type_bf331821_5b54_4c81_ad70_df14e85d53f0_Class2 ( obj_b0c2021d_1666_44ab_94ff_5c59a38abf38 o )  ) )):named c15))
(assert (! (exists ((o Int)) (and (and (and (and (and (and ( type_bf331821_5b54_4c81_ad70_df14e85d53f0_Class23 ( obj_b0c2021d_1666_44ab_94ff_5c59a38abf38 o )  )  ( type_bf331821_5b54_4c81_ad70_df14e85d53f0_Class12 ( obj_b0c2021d_1666_44ab_94ff_5c59a38abf38 o )  ) ) ( type_bf331821_5b54_4c81_ad70_df14e85d53f0_Class22 ( obj_b0c2021d_1666_44ab_94ff_5c59a38abf38 o )  ) ) ( type_bf331821_5b54_4c81_ad70_df14e85d53f0_Class25 ( obj_b0c2021d_1666_44ab_94ff_5c59a38abf38 o )  ) ) ( type_bf331821_5b54_4c81_ad70_df14e85d53f0_Class35 ( obj_b0c2021d_1666_44ab_94ff_5c59a38abf38 o )  ) ) ( type_bf331821_5b54_4c81_ad70_df14e85d53f0_Class0 ( obj_b0c2021d_1666_44ab_94ff_5c59a38abf38 o )  ) ) ( type_bf331821_5b54_4c81_ad70_df14e85d53f0_Class2 ( obj_b0c2021d_1666_44ab_94ff_5c59a38abf38 o )  ) )):named c16))
(assert (! (exists ((o Int)) (and (and (and ( type_bf331821_5b54_4c81_ad70_df14e85d53f0_Class24 ( obj_b0c2021d_1666_44ab_94ff_5c59a38abf38 o )  )  ( type_bf331821_5b54_4c81_ad70_df14e85d53f0_Class26 ( obj_b0c2021d_1666_44ab_94ff_5c59a38abf38 o )  ) ) ( type_bf331821_5b54_4c81_ad70_df14e85d53f0_Class32 ( obj_b0c2021d_1666_44ab_94ff_5c59a38abf38 o )  ) ) ( type_bf331821_5b54_4c81_ad70_df14e85d53f0_Class2 ( obj_b0c2021d_1666_44ab_94ff_5c59a38abf38 o )  ) )):named c17))
(assert (! (exists ((o Int)) (and (and (and (and (and ( type_bf331821_5b54_4c81_ad70_df14e85d53f0_Class25 ( obj_b0c2021d_1666_44ab_94ff_5c59a38abf38 o )  )  ( type_bf331821_5b54_4c81_ad70_df14e85d53f0_Class12 ( obj_b0c2021d_1666_44ab_94ff_5c59a38abf38 o )  ) ) ( type_bf331821_5b54_4c81_ad70_df14e85d53f0_Class22 ( obj_b0c2021d_1666_44ab_94ff_5c59a38abf38 o )  ) ) ( type_bf331821_5b54_4c81_ad70_df14e85d53f0_Class35 ( obj_b0c2021d_1666_44ab_94ff_5c59a38abf38 o )  ) ) ( type_bf331821_5b54_4c81_ad70_df14e85d53f0_Class0 ( obj_b0c2021d_1666_44ab_94ff_5c59a38abf38 o )  ) ) ( type_bf331821_5b54_4c81_ad70_df14e85d53f0_Class2 ( obj_b0c2021d_1666_44ab_94ff_5c59a38abf38 o )  ) )):named c18))
(assert (! (exists ((o Int)) (and (and ( type_bf331821_5b54_4c81_ad70_df14e85d53f0_Class26 ( obj_b0c2021d_1666_44ab_94ff_5c59a38abf38 o )  )  ( type_bf331821_5b54_4c81_ad70_df14e85d53f0_Class32 ( obj_b0c2021d_1666_44ab_94ff_5c59a38abf38 o )  ) ) ( type_bf331821_5b54_4c81_ad70_df14e85d53f0_Class2 ( obj_b0c2021d_1666_44ab_94ff_5c59a38abf38 o )  ) )):named c19))
(assert (! (exists ((o Int)) (and ( type_bf331821_5b54_4c81_ad70_df14e85d53f0_Class27 ( obj_b0c2021d_1666_44ab_94ff_5c59a38abf38 o )  )  ( type_bf331821_5b54_4c81_ad70_df14e85d53f0_Class2 ( obj_b0c2021d_1666_44ab_94ff_5c59a38abf38 o )  ) )):named c20))
(assert (! (exists ((o Int)) ( type_bf331821_5b54_4c81_ad70_df14e85d53f0_Class28 ( obj_b0c2021d_1666_44ab_94ff_5c59a38abf38 o )  ) ):named c21))
(assert (! (exists ((o Int)) ( type_bf331821_5b54_4c81_ad70_df14e85d53f0_Class29 ( obj_b0c2021d_1666_44ab_94ff_5c59a38abf38 o )  ) ):named c22))
(assert (! (exists ((o Int)) ( type_bf331821_5b54_4c81_ad70_df14e85d53f0_Class3 ( obj_b0c2021d_1666_44ab_94ff_5c59a38abf38 o )  ) ):named c23))
(assert (! (exists ((o Int)) (and ( type_bf331821_5b54_4c81_ad70_df14e85d53f0_Class30 ( obj_b0c2021d_1666_44ab_94ff_5c59a38abf38 o )  )  ( type_bf331821_5b54_4c81_ad70_df14e85d53f0_Class2 ( obj_b0c2021d_1666_44ab_94ff_5c59a38abf38 o )  ) )):named c24))
(assert (! (exists ((o Int)) (and (and (and (and ( type_bf331821_5b54_4c81_ad70_df14e85d53f0_Class31 ( obj_b0c2021d_1666_44ab_94ff_5c59a38abf38 o )  )  ( type_bf331821_5b54_4c81_ad70_df14e85d53f0_Class16 ( obj_b0c2021d_1666_44ab_94ff_5c59a38abf38 o )  ) ) ( type_bf331821_5b54_4c81_ad70_df14e85d53f0_Class15 ( obj_b0c2021d_1666_44ab_94ff_5c59a38abf38 o )  ) ) ( type_bf331821_5b54_4c81_ad70_df14e85d53f0_Class41 ( obj_b0c2021d_1666_44ab_94ff_5c59a38abf38 o )  ) ) ( type_bf331821_5b54_4c81_ad70_df14e85d53f0_Class2 ( obj_b0c2021d_1666_44ab_94ff_5c59a38abf38 o )  ) )):named c25))
(assert (! (exists ((o Int)) (and ( type_bf331821_5b54_4c81_ad70_df14e85d53f0_Class32 ( obj_b0c2021d_1666_44ab_94ff_5c59a38abf38 o )  )  ( type_bf331821_5b54_4c81_ad70_df14e85d53f0_Class2 ( obj_b0c2021d_1666_44ab_94ff_5c59a38abf38 o )  ) )):named c26))
(assert (! (exists ((o Int)) (and (and (and (and (and ( type_bf331821_5b54_4c81_ad70_df14e85d53f0_Class33 ( obj_b0c2021d_1666_44ab_94ff_5c59a38abf38 o )  )  ( type_bf331821_5b54_4c81_ad70_df14e85d53f0_Class13 ( obj_b0c2021d_1666_44ab_94ff_5c59a38abf38 o )  ) ) ( type_bf331821_5b54_4c81_ad70_df14e85d53f0_Class16 ( obj_b0c2021d_1666_44ab_94ff_5c59a38abf38 o )  ) ) ( type_bf331821_5b54_4c81_ad70_df14e85d53f0_Class15 ( obj_b0c2021d_1666_44ab_94ff_5c59a38abf38 o )  ) ) ( type_bf331821_5b54_4c81_ad70_df14e85d53f0_Class41 ( obj_b0c2021d_1666_44ab_94ff_5c59a38abf38 o )  ) ) ( type_bf331821_5b54_4c81_ad70_df14e85d53f0_Class2 ( obj_b0c2021d_1666_44ab_94ff_5c59a38abf38 o )  ) )):named c27))
(assert (! (exists ((o Int)) ( type_bf331821_5b54_4c81_ad70_df14e85d53f0_Class34 ( obj_b0c2021d_1666_44ab_94ff_5c59a38abf38 o )  ) ):named c28))
(assert (! (exists ((o Int)) (and ( type_bf331821_5b54_4c81_ad70_df14e85d53f0_Class35 ( obj_b0c2021d_1666_44ab_94ff_5c59a38abf38 o )  )  ( type_bf331821_5b54_4c81_ad70_df14e85d53f0_Class2 ( obj_b0c2021d_1666_44ab_94ff_5c59a38abf38 o )  ) )):named c29))
(assert (! (exists ((o Int)) ( type_bf331821_5b54_4c81_ad70_df14e85d53f0_Class36 ( obj_b0c2021d_1666_44ab_94ff_5c59a38abf38 o )  ) ):named c30))
(assert (! (exists ((o Int)) ( type_bf331821_5b54_4c81_ad70_df14e85d53f0_Class37 ( obj_b0c2021d_1666_44ab_94ff_5c59a38abf38 o )  ) ):named c31))
(assert (! (exists ((o Int)) (and ( type_bf331821_5b54_4c81_ad70_df14e85d53f0_Class38 ( obj_b0c2021d_1666_44ab_94ff_5c59a38abf38 o )  )  ( type_bf331821_5b54_4c81_ad70_df14e85d53f0_Class2 ( obj_b0c2021d_1666_44ab_94ff_5c59a38abf38 o )  ) )):named c32))
(assert (! (exists ((o Int)) ( type_bf331821_5b54_4c81_ad70_df14e85d53f0_Class39 ( obj_b0c2021d_1666_44ab_94ff_5c59a38abf38 o )  ) ):named c33))
(assert (! (exists ((o Int)) (and (and (and (and (and (and ( type_bf331821_5b54_4c81_ad70_df14e85d53f0_Class4 ( obj_b0c2021d_1666_44ab_94ff_5c59a38abf38 o )  )  ( type_bf331821_5b54_4c81_ad70_df14e85d53f0_Class33 ( obj_b0c2021d_1666_44ab_94ff_5c59a38abf38 o )  ) ) ( type_bf331821_5b54_4c81_ad70_df14e85d53f0_Class13 ( obj_b0c2021d_1666_44ab_94ff_5c59a38abf38 o )  ) ) ( type_bf331821_5b54_4c81_ad70_df14e85d53f0_Class16 ( obj_b0c2021d_1666_44ab_94ff_5c59a38abf38 o )  ) ) ( type_bf331821_5b54_4c81_ad70_df14e85d53f0_Class15 ( obj_b0c2021d_1666_44ab_94ff_5c59a38abf38 o )  ) ) ( type_bf331821_5b54_4c81_ad70_df14e85d53f0_Class41 ( obj_b0c2021d_1666_44ab_94ff_5c59a38abf38 o )  ) ) ( type_bf331821_5b54_4c81_ad70_df14e85d53f0_Class2 ( obj_b0c2021d_1666_44ab_94ff_5c59a38abf38 o )  ) )):named c34))
(assert (! (exists ((o Int)) (and (and (and ( type_bf331821_5b54_4c81_ad70_df14e85d53f0_Class40 ( obj_b0c2021d_1666_44ab_94ff_5c59a38abf38 o )  )  ( type_bf331821_5b54_4c81_ad70_df14e85d53f0_Class21 ( obj_b0c2021d_1666_44ab_94ff_5c59a38abf38 o )  ) ) ( type_bf331821_5b54_4c81_ad70_df14e85d53f0_Class2 ( obj_b0c2021d_1666_44ab_94ff_5c59a38abf38 o )  ) ) ( type_bf331821_5b54_4c81_ad70_df14e85d53f0_Class20 ( obj_b0c2021d_1666_44ab_94ff_5c59a38abf38 o )  ) )):named c35))
(assert (! (exists ((o Int)) (and (and (and ( type_bf331821_5b54_4c81_ad70_df14e85d53f0_Class41 ( obj_b0c2021d_1666_44ab_94ff_5c59a38abf38 o )  )  ( type_bf331821_5b54_4c81_ad70_df14e85d53f0_Class16 ( obj_b0c2021d_1666_44ab_94ff_5c59a38abf38 o )  ) ) ( type_bf331821_5b54_4c81_ad70_df14e85d53f0_Class15 ( obj_b0c2021d_1666_44ab_94ff_5c59a38abf38 o )  ) ) ( type_bf331821_5b54_4c81_ad70_df14e85d53f0_Class2 ( obj_b0c2021d_1666_44ab_94ff_5c59a38abf38 o )  ) )):named c36))
(assert (! (exists ((o Int)) (and (and (and ( type_bf331821_5b54_4c81_ad70_df14e85d53f0_Class42 ( obj_b0c2021d_1666_44ab_94ff_5c59a38abf38 o )  )  ( type_bf331821_5b54_4c81_ad70_df14e85d53f0_Class22 ( obj_b0c2021d_1666_44ab_94ff_5c59a38abf38 o )  ) ) ( type_bf331821_5b54_4c81_ad70_df14e85d53f0_Class35 ( obj_b0c2021d_1666_44ab_94ff_5c59a38abf38 o )  ) ) ( type_bf331821_5b54_4c81_ad70_df14e85d53f0_Class2 ( obj_b0c2021d_1666_44ab_94ff_5c59a38abf38 o )  ) )):named c37))
(assert (! (exists ((o Int)) ( type_bf331821_5b54_4c81_ad70_df14e85d53f0_Class43 ( obj_b0c2021d_1666_44ab_94ff_5c59a38abf38 o )  ) ):named c38))
(assert (! (exists ((o Int)) (and (and (and (and (and (and ( type_bf331821_5b54_4c81_ad70_df14e85d53f0_Class44 ( obj_b0c2021d_1666_44ab_94ff_5c59a38abf38 o )  )  ( type_bf331821_5b54_4c81_ad70_df14e85d53f0_Class33 ( obj_b0c2021d_1666_44ab_94ff_5c59a38abf38 o )  ) ) ( type_bf331821_5b54_4c81_ad70_df14e85d53f0_Class13 ( obj_b0c2021d_1666_44ab_94ff_5c59a38abf38 o )  ) ) ( type_bf331821_5b54_4c81_ad70_df14e85d53f0_Class16 ( obj_b0c2021d_1666_44ab_94ff_5c59a38abf38 o )  ) ) ( type_bf331821_5b54_4c81_ad70_df14e85d53f0_Class15 ( obj_b0c2021d_1666_44ab_94ff_5c59a38abf38 o )  ) ) ( type_bf331821_5b54_4c81_ad70_df14e85d53f0_Class41 ( obj_b0c2021d_1666_44ab_94ff_5c59a38abf38 o )  ) ) ( type_bf331821_5b54_4c81_ad70_df14e85d53f0_Class2 ( obj_b0c2021d_1666_44ab_94ff_5c59a38abf38 o )  ) )):named c39))
(assert (! (exists ((o Int)) ( type_bf331821_5b54_4c81_ad70_df14e85d53f0_Class45 ( obj_b0c2021d_1666_44ab_94ff_5c59a38abf38 o )  ) ):named c40))
(assert (! (exists ((o Int)) ( type_bf331821_5b54_4c81_ad70_df14e85d53f0_Class5 ( obj_b0c2021d_1666_44ab_94ff_5c59a38abf38 o )  ) ):named c41))
(assert (! (exists ((o Int)) (and (and (and (and ( type_bf331821_5b54_4c81_ad70_df14e85d53f0_Class6 ( obj_b0c2021d_1666_44ab_94ff_5c59a38abf38 o )  )  ( type_bf331821_5b54_4c81_ad70_df14e85d53f0_Class22 ( obj_b0c2021d_1666_44ab_94ff_5c59a38abf38 o )  ) ) ( type_bf331821_5b54_4c81_ad70_df14e85d53f0_Class35 ( obj_b0c2021d_1666_44ab_94ff_5c59a38abf38 o )  ) ) ( type_bf331821_5b54_4c81_ad70_df14e85d53f0_Class2 ( obj_b0c2021d_1666_44ab_94ff_5c59a38abf38 o )  ) ) ( type_bf331821_5b54_4c81_ad70_df14e85d53f0_Class42 ( obj_b0c2021d_1666_44ab_94ff_5c59a38abf38 o )  ) )):named c42))
(assert (! (exists ((o Int)) ( type_bf331821_5b54_4c81_ad70_df14e85d53f0_Class7 ( obj_b0c2021d_1666_44ab_94ff_5c59a38abf38 o )  ) ):named c43))
(assert (! (exists ((o Int)) (and (and (and (and (and ( type_bf331821_5b54_4c81_ad70_df14e85d53f0_Class8 ( obj_b0c2021d_1666_44ab_94ff_5c59a38abf38 o )  )  ( type_bf331821_5b54_4c81_ad70_df14e85d53f0_Class16 ( obj_b0c2021d_1666_44ab_94ff_5c59a38abf38 o )  ) ) ( type_bf331821_5b54_4c81_ad70_df14e85d53f0_Class15 ( obj_b0c2021d_1666_44ab_94ff_5c59a38abf38 o )  ) ) ( type_bf331821_5b54_4c81_ad70_df14e85d53f0_Class41 ( obj_b0c2021d_1666_44ab_94ff_5c59a38abf38 o )  ) ) ( type_bf331821_5b54_4c81_ad70_df14e85d53f0_Class10 ( obj_b0c2021d_1666_44ab_94ff_5c59a38abf38 o )  ) ) ( type_bf331821_5b54_4c81_ad70_df14e85d53f0_Class2 ( obj_b0c2021d_1666_44ab_94ff_5c59a38abf38 o )  ) )):named c44))
(assert (! (exists ((o Int)) (and (and (and (and (and (and (and ( type_bf331821_5b54_4c81_ad70_df14e85d53f0_Class9 ( obj_b0c2021d_1666_44ab_94ff_5c59a38abf38 o )  )  ( type_bf331821_5b54_4c81_ad70_df14e85d53f0_Class22 ( obj_b0c2021d_1666_44ab_94ff_5c59a38abf38 o )  ) ) ( type_bf331821_5b54_4c81_ad70_df14e85d53f0_Class35 ( obj_b0c2021d_1666_44ab_94ff_5c59a38abf38 o )  ) ) ( type_bf331821_5b54_4c81_ad70_df14e85d53f0_Class16 ( obj_b0c2021d_1666_44ab_94ff_5c59a38abf38 o )  ) ) ( type_bf331821_5b54_4c81_ad70_df14e85d53f0_Class15 ( obj_b0c2021d_1666_44ab_94ff_5c59a38abf38 o )  ) ) ( type_bf331821_5b54_4c81_ad70_df14e85d53f0_Class0 ( obj_b0c2021d_1666_44ab_94ff_5c59a38abf38 o )  ) ) ( type_bf331821_5b54_4c81_ad70_df14e85d53f0_Class41 ( obj_b0c2021d_1666_44ab_94ff_5c59a38abf38 o )  ) ) ( type_bf331821_5b54_4c81_ad70_df14e85d53f0_Class2 ( obj_b0c2021d_1666_44ab_94ff_5c59a38abf38 o )  ) )):named c45))

 ;end of formula 